Welcome to the CBC MILP Solver 
Version: 2.10.12 
Build Date: Aug 20 2024 

command line - /opt/homebrew/bin/cbc computational_data/real_data/lp/iris_trial_003.lp seconds 10.0 solve solu computational_data/real_data/solutions/iris_trial_003.sol (default strategy 1)
seconds was changed from 1e+100 to 10
Continuous objective value is 4.53247 - 0.00 seconds
Cgl0003I 0 fixed, 0 tightened bounds, 100 strengthened rows, 0 substitutions
Cgl0003I 0 fixed, 0 tightened bounds, 104 strengthened rows, 0 substitutions
Cgl0003I 0 fixed, 0 tightened bounds, 100 strengthened rows, 0 substitutions
Cgl0003I 0 fixed, 0 tightened bounds, 90 strengthened rows, 0 substitutions
Cgl0003I 0 fixed, 0 tightened bounds, 84 strengthened rows, 0 substitutions
Cgl0003I 0 fixed, 0 tightened bounds, 75 strengthened rows, 0 substitutions
Cgl0003I 0 fixed, 0 tightened bounds, 34 strengthened rows, 0 substitutions
Cgl0003I 0 fixed, 0 tightened bounds, 21 strengthened rows, 0 substitutions
Cgl0003I 0 fixed, 0 tightened bounds, 18 strengthened rows, 0 substitutions
Cgl0004I processed model has 110 rows, 33 columns (33 integer (33 of which binary)) and 880 elements
Cutoff increment increased from 1e-05 to 0.9999
Cbc0038I Initial state - 32 integers unsatisfied sum - 3.53247
Cbc0038I Pass   1: suminf.    3.53247 (32) obj. 4.53247 iterations 0
Cbc0038I Pass   2: suminf.    0.00000 (0) obj. 5 iterations 34
Cbc0038I Solution found of 5
Cbc0038I Before mini branch and bound, 1 integers at bound fixed and 0 continuous
Cbc0038I Mini branch and bound did not improve solution (0.01 seconds)
Cbc0038I After 0.01 seconds - Feasibility pump exiting with objective of 5 - took 0.00 seconds
Cbc0012I Integer solution of 5 found by feasibility pump after 0 iterations and 0 nodes (0.01 seconds)
Cbc0001I Search completed - best objective 5, took 0 iterations and 0 nodes (0.01 seconds)
Cbc0035I Maximum depth 0, 0 variables fixed on reduced cost
Cuts at root node changed objective from 4.53247 to 4.53247
Probing was tried 0 times and created 0 cuts of which 0 were active after adding rounds of cuts (0.000 seconds)
Gomory was tried 0 times and created 0 cuts of which 0 were active after adding rounds of cuts (0.000 seconds)
Knapsack was tried 0 times and created 0 cuts of which 0 were active after adding rounds of cuts (0.000 seconds)
Clique was tried 0 times and created 0 cuts of which 0 were active after adding rounds of cuts (0.000 seconds)
MixedIntegerRounding2 was tried 0 times and created 0 cuts of which 0 were active after adding rounds of cuts (0.000 seconds)
FlowCover was tried 0 times and created 0 cuts of which 0 were active after adding rounds of cuts (0.000 seconds)
TwoMirCuts was tried 0 times and created 0 cuts of which 0 were active after adding rounds of cuts (0.000 seconds)
ZeroHalf was tried 0 times and created 0 cuts of which 0 were active after adding rounds of cuts (0.000 seconds)

Result - Optimal solution found

Objective value:                5.00000000
Enumerated nodes:               0
Total iterations:               0
Time (CPU seconds):             0.01
Time (Wallclock seconds):       0.01

Total time (CPU seconds):       0.01   (Wallclock seconds):       0.01

